
Gurobi 10.0.3 (linux64, gurobi_cl) logging started Thu Nov  2 11:35:20 2023

Set parameter Username
Set parameter TimeLimit to value 3600
Set parameter LogFile to value "RCPSP_657.log"
Set parameter Threads to value 32
Academic license - for non-commercial use only - expires 2024-10-30
Using license file /home/jrivera6/gurobi-licenses/v1003/compute-0-35/gurobi.lic

Gurobi Optimizer version 10.0.3 build v10.0.3rc0 (linux64)
Copyright (c) 2023, Gurobi Optimization, LLC

Read MPS format model from file RCPSP_657.mps
Reading time = 0.03 seconds
RCPSP_657: 19643 rows, 7750 columns, 60937 nonzeros

CPU model: Intel(R) Xeon(R) Gold 6130 CPU @ 2.10GHz, instruction set [SSE2|AVX|AVX2|AVX512]
Thread count: 32 physical cores, 32 logical processors, using up to 32 threads

Optimize a model with 19643 rows, 7750 columns and 60937 nonzeros
Model fingerprint: 0xf254284a
Variable types: 62 continuous, 7688 integer (7688 binary)
Coefficient statistics:
  Matrix range     [1e+00, 3e+02]
  Objective range  [1e+00, 1e+00]
  Bounds range     [1e+00, 1e+00]
  RHS range        [1e+00, 3e+02]
Presolve removed 9526 rows and 3631 columns
Presolve time: 4.20s
Presolved: 10117 rows, 4119 columns, 31862 nonzeros
Variable types: 61 continuous, 4058 integer (4058 binary)

Root relaxation: objective 8.900000e+01, 1326 iterations, 0.02 seconds (0.01 work units)

    Nodes    |    Current Node    |     Objective Bounds      |     Work
 Expl Unexpl |  Obj  Depth IntInf | Incumbent    BestBd   Gap | It/Node Time

     0     0   89.00000    0    5          -   89.00000      -     -    4s
H    0     0                      99.0000000   89.00000  10.1%     -    6s
     0     0   89.00000    0   61   99.00000   89.00000  10.1%     -    6s
     0     0   93.00000    0   56   99.00000   93.00000  6.06%     -    6s
     0     0   93.00000    0   56   99.00000   93.00000  6.06%     -    6s
     0     0   93.00000    0    2   99.00000   93.00000  6.06%     -   20s
H    0     0                      93.0000000   93.00000  0.00%     -   20s
     0     0   93.00000    0    2   93.00000   93.00000  0.00%     -   20s

Explored 1 nodes (6626 simplex iterations) in 20.79 seconds (3.41 work units)
Thread count was 32 (of 32 available processors)

Solution count 2: 93 99 

Optimal solution found (tolerance 1.00e-04)
Best objective 9.300000000000e+01, best bound 9.300000000000e+01, gap 0.0000%

Wrote result file 'RCPSP_657.sol'

